1111100 AB
340 368 395 422 441 460 479 498 518 548 582 626 670 700 731 762 792 822 852 883 915 947 979 1011 1031 1051 1071 1091 1112 1139 1166 1193 1223 1253 1283 1321 1359 1397 1435
1111100 BA
377 405 435 467 486 505 524 543 562 591 625 669 713 743 774 805 835 865 895 927 960 992 1024 1056 1076 1096 1116 1136 1154 1179 1206 1233 1263 1288 1318 1356 1394 1432 30
0000011 AB
340 381 422 466 510 562 614 666 703 740 769 798 828 858 902 946 990 1034 1080 1109 1138 1194 1250 1288 1325 1356 1400 1435
0000011 BA
377 418 462 506 550 602 654 706 743 780 809 838 868 898 942 986 1030 1074 1120 1149 1178 1234 1285 1323 1360 1391 1435 30
